num_stars = 3;
dim = 14;
sectors = [|
1, 1, 1, 1, 1, 2, 2, 2, 2, 2, 3, 3, 3, 3|
1, 4, 4, 5, 5, 5, 5, 2, 6, 2, 3, 2, 2, 3|
1, 4, 4, 4, 5, 2, 2, 2, 6, 2, 2, 2, 2, 3|
1, 4, 7, 4, 5, 6, 6, 6, 6, 6, 2, 8, 8, 3|
1, 4, 7, 5, 5, 5, 8, 8, 6, 6, 6, 8, 8, 3|
4, 4, 7, 7, 5, 5, 5, 8, 8, 8, 8, 8, 9, 3|
4, 7, 7, 7, 10, 10, 5, 5, 9, 9, 9, 9, 9, 3|
4, 4, 7, 10, 10, 10, 10, 5, 5, 5, 5, 5, 9, 3|
4, 4, 7, 10, 11, 11, 12, 5, 5, 5, 9, 9, 9, 3|
4, 7, 7, 7, 11, 11, 12, 12, 5, 5, 9, 3, 3, 3|
4, 4, 7, 11, 11, 11, 11, 12, 5, 5, 9, 3, 9, 9|
4, 7, 7, 13, 11, 13, 11, 12, 12, 12, 9, 9, 9, 14|
13, 13, 13, 13, 13, 13, 11, 11, 11, 12, 9, 9, 9, 14|
13, 13, 13, 13, 13, 13, 11, 12, 12, 12, 14, 14, 14, 14|
];